<?xml version = "1.0" encoding="UTF-8" standalone="yes"?>
<CPLEXSolution version="1.2">
 <header
   problemName="IloCplex"
   solutionName="p0"
   solutionIndex="-1"
   objectiveValue="-5028425492"
   solutionTypeValue="3"
   solutionTypeString="primal"
   solutionStatusValue="127"
   solutionStatusString="integer feasible solution"
   solutionMethodString="mip"
   primalFeasible="0"
   dualFeasible="0"
   writeLevel="3"/>
 <quality
   epInt="1.0000000000000001e-05"
   epRHS="9.9999999999999995e-07"
   maxIntInfeas="0"
   maxPrimalInfeas="0"
   maxX="1"
   maxSlack="1"/>
 <variables>
  <variable name="w1_12" index="27" value="1"/>
  <variable name="w1_13" index="28" value="1"/>
  <variable name="w2_12" index="42" value="1"/>
  <variable name="w2_13" index="43" value="1"/>
  <variable name="w3_12" index="57" value="1"/>
  <variable name="w3_13" index="58" value="1"/>
  <variable name="w4_12" index="72" value="1"/>
  <variable name="w4_13" index="73" value="1"/>
  <variable name="w7_12" index="117" value="1"/>
  <variable name="w7_13" index="118" value="1"/>
  <variable name="w8_12" index="132" value="1"/>
  <variable name="w8_13" index="133" value="1"/>
  <variable name="w18_12" index="282" value="1"/>
  <variable name="w18_13" index="283" value="1"/>
  <variable name="w19_12" index="297" value="1"/>
  <variable name="w19_13" index="298" value="1"/>
  <variable name="k1" index="301" value="1"/>
  <variable name="k2" index="302" value="1"/>
  <variable name="k3" index="303" value="1"/>
  <variable name="k4" index="304" value="1"/>
  <variable name="k7" index="307" value="1"/>
  <variable name="k8" index="308" value="1"/>
  <variable name="k18" index="318" value="1"/>
  <variable name="k19" index="319" value="1"/>
  <variable name="x0_27" index="347" value="1"/>
  <variable name="x1_34" index="504" value="1"/>
  <variable name="x2_14" index="634" value="1"/>
  <variable name="x3_80" index="850" value="1"/>
  <variable name="x4_38" index="958" value="1"/>
  <variable name="x5_135" index="1205" value="1"/>
  <variable name="x6_31" index="1251" value="1"/>
  <variable name="x7_93" index="1463" value="1"/>
  <variable name="x8_60" index="1580" value="1"/>
  <variable name="x9_67" index="1737" value="1"/>
  <variable name="x10_8" index="1828" value="1"/>
  <variable name="x11_32" index="2002" value="1"/>
  <variable name="x12_71" index="2191" value="1"/>
  <variable name="x13_87" index="2357" value="1"/>
  <variable name="x14_4" index="2424" value="1"/>
  <variable name="x15_53" index="2623" value="1"/>
  <variable name="x16_2" index="2722" value="1"/>
  <variable name="x17_74" index="2944" value="1"/>
  <variable name="x18_65" index="3085" value="1"/>
  <variable name="x19_43" index="3213" value="1"/>
  <variable name="x20_17" index="3337" value="1"/>
  <variable name="x21_129" index="3599" value="1"/>
  <variable name="x22_0" index="3620" value="1"/>
  <variable name="x23_144" index="3914" value="1"/>
  <variable name="x24_146" index="4066" value="1"/>
  <variable name="x25_69" index="4139" value="1"/>
  <variable name="x26_54" index="4274" value="1"/>
  <variable name="x27_35" index="4405" value="1"/>
  <variable name="x28_133" index="4653" value="1"/>
  <variable name="x29_50" index="4720" value="1"/>
  <variable name="x30_64" index="4884" value="1"/>
  <variable name="x31_148" index="5118" value="1"/>
  <variable name="x32_11" index="5131" value="1"/>
  <variable name="x33_143" index="5413" value="1"/>
  <variable name="x34_125" index="5545" value="1"/>
  <variable name="x35_130" index="5700" value="1"/>
  <variable name="x36_1" index="5721" value="1"/>
  <variable name="x37_101" index="5971" value="1"/>
  <variable name="x38_52" index="6072" value="1"/>
  <variable name="x39_140" index="6310" value="1"/>
  <variable name="x40_127" index="6447" value="1"/>
  <variable name="x41_55" index="6525" value="1"/>
  <variable name="x42_138" index="6758" value="1"/>
  <variable name="x43_84" index="6854" value="1"/>
  <variable name="x44_58" index="6978" value="1"/>
  <variable name="x45_141" index="7211" value="1"/>
  <variable name="x46_56" index="7276" value="1"/>
  <variable name="x47_131" index="7501" value="1"/>
  <variable name="x48_12" index="7532" value="1"/>
  <variable name="x49_137" index="7807" value="1"/>
  <variable name="x50_122" index="7942" value="1"/>
  <variable name="x51_112" index="8082" value="1"/>
  <variable name="x52_147" index="8267" value="1"/>
  <variable name="x53_115" index="8385" value="1"/>
  <variable name="x54_68" index="8488" value="1"/>
  <variable name="x55_117" index="8687" value="1"/>
  <variable name="x56_118" index="8838" value="1"/>
  <variable name="x57_149" index="9019" value="1"/>
  <variable name="x58_95" index="9115" value="1"/>
  <variable name="x59_26" index="9196" value="1"/>
  <variable name="x60_102" index="9422" value="1"/>
  <variable name="x61_116" index="9586" value="1"/>
  <variable name="x62_44" index="9664" value="1"/>
  <variable name="x63_21" index="9791" value="1"/>
  <variable name="x64_72" index="9992" value="1"/>
  <variable name="x65_15" index="10085" value="1"/>
  <variable name="x66_3" index="10223" value="1"/>
  <variable name="x67_36" index="10406" value="1"/>
  <variable name="x68_124" index="10644" value="1"/>
  <variable name="x69_136" index="10806" value="1"/>
  <variable name="x70_89" index="10909" value="1"/>
  <variable name="x71_83" index="11053" value="1"/>
  <variable name="x72_88" index="11208" value="1"/>
  <variable name="x73_23" index="11293" value="1"/>
  <variable name="x74_81" index="11501" value="1"/>
  <variable name="x75_78" index="11648" value="1"/>
  <variable name="x76_85" index="11805" value="1"/>
  <variable name="x77_7" index="11877" value="1"/>
  <variable name="x78_100" index="12120" value="1"/>
  <variable name="x79_59" index="12229" value="1"/>
  <variable name="x80_106" index="12426" value="1"/>
  <variable name="x81_114" index="12584" value="1"/>
  <variable name="x82_111" index="12731" value="1"/>
  <variable name="x83_62" index="12832" value="1"/>
  <variable name="x84_97" index="13017" value="1"/>
  <variable name="x85_94" index="13164" value="1"/>
  <variable name="x86_37" index="13257" value="1"/>
  <variable name="x87_110" index="13480" value="1"/>
  <variable name="x88_42" index="13562" value="1"/>
  <variable name="x89_86" index="13756" value="1"/>
  <variable name="x90_66" index="13886" value="1"/>
  <variable name="x91_73" index="14043" value="1"/>
  <variable name="x92_5" index="14125" value="1"/>
  <variable name="x93_120" index="14390" value="1"/>
  <variable name="x94_98" index="14518" value="1"/>
  <variable name="x95_126" index="14696" value="1"/>
  <variable name="x96_105" index="14825" value="1"/>
  <variable name="x97_128" index="14998" value="1"/>
  <variable name="x98_40" index="15060" value="1"/>
  <variable name="x99_142" index="15312" value="1"/>
  <variable name="x100_41" index="15361" value="1"/>
  <variable name="x101_123" index="15593" value="1"/>
  <variable name="x102_76" index="15696" value="1"/>
  <variable name="x103_108" index="15878" value="1"/>
  <variable name="x104_79" index="15999" value="1"/>
  <variable name="x105_63" index="16133" value="1"/>
  <variable name="x106_91" index="16311" value="1"/>
  <variable name="x107_9" index="16379" value="1"/>
  <variable name="x108_13" index="16533" value="1"/>
  <variable name="x109_92" index="16762" value="1"/>
  <variable name="x110_6" index="16826" value="1"/>
  <variable name="x111_107" index="17077" value="1"/>
  <variable name="x112_46" index="17166" value="1"/>
  <variable name="x113_10" index="17280" value="1"/>
  <variable name="x114_104" index="17524" value="1"/>
  <variable name="x115_113" index="17683" value="1"/>
  <variable name="x116_82" index="17802" value="1"/>
  <variable name="x117_47" index="17917" value="1"/>
  <variable name="x118_145" index="18165" value="1"/>
  <variable name="x119_70" index="18240" value="1"/>
  <variable name="x120_33" index="18353" value="1"/>
  <variable name="x121_96" index="18566" value="1"/>
  <variable name="x122_99" index="18719" value="1"/>
  <variable name="x123_45" index="18815" value="1"/>
  <variable name="x124_134" index="19054" value="1"/>
  <variable name="x125_132" index="19202" value="1"/>
  <variable name="x126_51" index="19271" value="1"/>
  <variable name="x127_24" index="19394" value="1"/>
  <variable name="x128_119" index="19639" value="1"/>
  <variable name="x129_75" index="19745" value="1"/>
  <variable name="x130_121" index="19941" value="1"/>
  <variable name="x131_28" index="19998" value="1"/>
  <variable name="x132_29" index="20149" value="1"/>
  <variable name="x133_39" index="20309" value="1"/>
  <variable name="x134_90" index="20510" value="1"/>
  <variable name="x135_49" index="20619" value="1"/>
  <variable name="x136_139" index="20859" value="1"/>
  <variable name="x137_30" index="20900" value="1"/>
  <variable name="x138_18" index="21038" value="1"/>
  <variable name="x139_16" index="21186" value="1"/>
  <variable name="x140_57" index="21377" value="1"/>
  <variable name="x141_103" index="21573" value="1"/>
  <variable name="x142_20" index="21640" value="1"/>
  <variable name="x143_19" index="21789" value="1"/>
  <variable name="x144_22" index="21942" value="1"/>
  <variable name="x145_109" index="22179" value="1"/>
  <variable name="x146_61" index="22281" value="1"/>
  <variable name="x147_48" index="22418" value="1"/>
  <variable name="x148_25" index="22545" value="1"/>
  <variable name="x149_77" index="22747" value="1"/>
  <variable name="u12" index="22832" value="1"/>
  <variable name="u13" index="22833" value="1"/>
 </variables>
</CPLEXSolution>
